(define-fun-rec
  u5
  ((x Int) (y Int)) Int (ite (<= x 0) y (* (u5 (- x 1) y) x)))
(define-fun
  v5
  ((x Int)) Int (u5 x 1))
(define-fun-rec
  u3
  ((x Int) (y Int)) Int (ite (<= x 0) y (* (u3 (- x 1) y) x)))
(define-fun
  v3
  ((x Int)) Int (u3 x 1))
(define-fun-rec
  u2
  ((x Int) (y Int)) Int (ite (<= x 0) y (+ (u2 (- x 1) y) x)))
(define-fun
  v2
  ((x Int) (y Int)) Int (u2 y x))
(define-fun-rec
  u1
  ((x Int) (y Int)) Int (ite (<= x 0) y (v2 (u1 (- x 1) y) x)))
(define-fun
  v1
  ((x Int)) Int (u1 x 0))
(define-fun
  j4
  ((x Int)) Int (div (* (+ 1 x) (* (+ 2 x) x)) (+ 2 (+ 2 2))))
(define-fun
  h4
  ((x Int)) Int x)
(define-fun
  h2
  ((x Int)) Int x)
(define-fun
  h0
  ((x Int)) Int x)
(define-fun
  g5
  ((x Int)) Int x)
(define-fun
  g4
  ((x Int) (y Int)) Int (- y 1))
(define-funs-rec
  ((v4
    ((x Int) (y Int) (z Int)) Int)
   (u4
    ((x Int) (y Int) (z Int)) Int))
  ((ite (<= x 0) z (g4 (u4 (- x 1) y z) (v4 (- x 1) y z)))
   (ite (<= x 0) y (* (u4 (- x 1) y z) (v4 (- x 1) y z)))))
(define-fun
  w4
  ((x Int)) Int (u4 x 1 (j4 x)))
(define-fun
  g3
  ((x Int)) Int x)
(define-fun
  g2
  ((x Int) (y Int)) Int y)
(define-fun
  g1
  ((x Int)) Int x)
(define-fun
  g0
  ((x Int) (y Int)) Int (- y 1))
(define-funs-rec
  ((v0
    ((x Int) (y Int) (z Int)) Int)
   (u0
    ((x Int) (y Int) (z Int)) Int))
  ((ite (<= x 0) z (g0 (u0 (- x 1) y z) (v0 (- x 1) y z)))
   (ite (<= x 0) y (* (u0 (- x 1) y z) (v0 (- x 1) y z)))))
(define-fun
  w0
  ((x Int)) Int (u0 x 1 (v1 x)))
(define-fun
  small
  ((x Int)) Int (div (w0 x) (v3 x)))
(define-fun
  fast
  ((x Int)) Int (div (w4 x) (v5 x)))
(assert-not
  (forall ((c Int)) (or (not (>= c 0)) (= (small c) (fast c)))))
